50
    1    22    24
    2    18    21
    3    14    11
    4     8     8
    5    33    35
    6    37    42
    7    10    10
    8    17    20
    9    38    34
   10    43    39
   11     2     6
   12    11    16
   13    17    19
   14    37    39
   15    30    33
   16    22    27
   17    48    46
   18     9    11
   19    24    28
   20    29    33
   21    21    26
   22     8     4
   23    34    29
   24    36    39
   25    11     7
   26    23    27
   27    35    33
   28    30    26
   29    19    24
   30     7    12
   31    45    46
   32    20    20
   33    31    32
   34    11    16
   35    41    45
   36    13    10
   37    23    23
   38    37    35
   39    24    23
   40    21    17
   41     5     8
   42    36    38
   43    40    39
   44    25    20
   45    47    48
   46    49    45
   47    22    26
   48    24    26
   49    38    38
   50    12    13
648
